p tw 20 116
0 1
0 2
0 6
0 7
0 14
0 10
0 5
0 12
0 19
0 16
0 8
1 2
1 8
1 9
1 7
1 13
1 6
1 18
1 3
1 5
1 16
1 10
1 11
1 14
1 17
1 4
2 3
2 4
2 14
2 5
2 15
2 11
2 8
2 12
2 19
2 6
2 18
3 4
3 5
3 18
3 6
3 9
3 10
3 13
3 16
4 5
4 15
4 18
4 13
4 19
4 6
4 7
4 12
4 16
4 10
5 15
5 6
5 12
5 18
6 7
6 18
6 11
6 12
6 8
6 10
6 9
6 16
6 15
6 17
7 19
7 8
7 10
7 17
7 18
8 9
8 18
8 10
8 12
9 13
9 15
9 17
9 10
10 11
10 12
10 14
10 19
10 15
10 16
10 13
11 12
11 19
11 15
11 14
11 16
11 17
12 13
12 15
12 16
12 19
13 19
13 17
13 18
13 16
14 15
14 16
14 19
14 17
15 16
15 17
15 18
15 19
16 19
16 17
16 18
17 18
18 19
